100
120
100
100
100
99
99
99
98
98
96
96
95
95
95
94
94
93
92
90
90
88
87
85
85
85
82
81
81
80
80
80
76
76
76
75
73
73
73
73
72
71
71
68
68
64
64
64
61
60
59
58
57
57
56
51
51
50
49
47
45
45
45
44
42
40
38
38
36
36
36
35
34
33
30
30
29
29
28
28
27
23
22
20
20
19
17
16
16
11
11
9
8
8
7
7
5
5
3
2
2
1
